myproject/instances/20nodes/rnd25_20.tsp
NAME : rnd25_20.tsp
TYPE : TSP
DIMENSION : 20
EDGE_WEIGHT_TYPE : EUC_2D
NODE_COORD_SECTION
1 880 768
2 875 775
3 110 262
4 102 863
5 787 345
6 91 868
7 921 139
8 163 273
9 498 156
10 531 991
11 325 827
12 740 988
13 69 20
14 292 502
15 181 643
16 117 230
17 910 828
18 135 321
19 636 588
20 64 769
