myproject/instances/20nodes/rnd25_20.opt.tour
NAME : rnd25_20.tsp.tsp.opt.tour
TYPE : TOUR
DIMENSION : 20
TOUR_SECTION
1
17
5
15
7
4
12
20
11
18
2
9
19
8
16
10
13
3
6
14
-1